NAME : gaussian_missing_edges_with_de_seg1_seg2_seg3_random96.7551.tour
COMMENT : Length = 7551
COMMENT : Found by LKH [Keld Helsgaun] Fri Jul 12 16:37:22 2024
TYPE : TOUR
DIMENSION : 96
TOUR_SECTION
1
30
41
77
54
10
33
15
74
67
78
55
32
93
36
21
84
69
64
3
23
49
2
89
79
24
65
53
57
29
7
87
20
59
63
61
58
39
46
71
60
80
91
82
48
88
42
47
12
6
9
5
14
11
4
52
8
28
96
27
51
22
37
43
72
86
26
90
85
92
76
56
75
50
94
45
25
17
31
83
13
73
40
19
68
34
16
95
38
81
18
44
62
66
70
35
-1
EOF
